%rwf=C4H5N_B3LYPp2_sp.rwf
# B3LYP 6-31g


0 1
N  0.000000 0.000000 1.129845
C  0.000000 1.134027 0.331508
C  -0.000000 -1.134027 0.331508
C  0.000000 0.715786 -0.986193
C  -0.000000 -0.715786 -0.986193
H  0.000000 0.000000 2.135892
H  0.000000 2.123532 0.759183
H  -0.000000 -2.123532 0.759183
H  0.000000 1.358587 -1.853473
H  -0.000000 -1.358587 -1.853473


