%mem=3GB
%nproc=1
#T B3LYP 6-31g opt


0 1
N  1.121800 0.000000 0.000000
C  0.334100 1.120900 0.000000
C  0.334100 -1.120900 0.000000
C  -0.984700 0.707600 0.000000
C  -0.984700 -0.707600 0.000000
H  2.117800 0.000000 0.000000
H  0.761400 2.108400 0.000000
H  0.761400 -2.108400 0.000000
H  -1.842900 1.356600 0.000000
H  -1.842900 -1.356600 0.000000


