%chk=_tmp.chk
#P B3LYP 6-31g

Test

2 2
O  0.000000 0.000000 0.000000
H  0.000000 0.757000 0.586000
H  0.000000 -0.757000 0.586000


