%rwf=test.rwf
%mem=10GB
%nproc=2
# B3LYP 6-31g  TD(singlets,nstates=4)

HCOOH molecule: transition density matrix

0 1
C       0.00000000      0.43285900      0.00000000
O      -1.04628800     -0.45320100      0.00000000
O       1.18631800      0.12015500      0.00000000
H      -0.39242800      1.45121600      0.00000000
H      -0.72780500     -1.38400400      0.00000000

